
Gurobi 9.1.2 (win64) logging started Tue Dec  7 10:20:36 2021

Gurobi Optimizer version 9.1.2 build v9.1.2rc0 (win64)
Thread count: 8 physical cores, 8 logical processors, using up to 8 threads
Optimize a model with 1 rows, 77 columns and 76 nonzeros
Model fingerprint: 0xe1e1e7ea
Variable types: 1 continuous, 76 integer (76 binary)
Coefficient statistics:
  Matrix range     [1e+00, 1e+01]
  Objective range  [1e+00, 1e+00]
  Bounds range     [6e+00, 6e+00]
  RHS range        [1e+01, 1e+01]
Presolve time: 0.00s
Presolved: 1 rows, 77 columns, 76 nonzeros
Variable types: 1 continuous, 76 integer (76 binary)

Root simplex log...

Iteration    Objective       Primal Inf.    Dual Inf.      Time
       0   -6.0675845e+00   1.031184e-01   0.000000e+00     15s
       3   -6.0675845e+00   0.000000e+00   0.000000e+00     15s

Root relaxation: objective -6.067584e+00, 3 iterations, 0.00 seconds

    Nodes    |    Current Node    |     Objective Bounds      |     Work
 Expl Unexpl |  Obj  Depth IntInf | Incumbent    BestBd   Gap | It/Node Time

     0     0   -6.04953    0    2          -   -6.04953      -     -   15s
H    0     0                       0.9148718   -6.04953   761%     -   15s
H    0     0                       0.9023361   -6.04953   770%     -   15s
     0     0   -4.94863    0    3    0.90234   -4.94863   648%     -   15s
     0     0   -3.71510    0    4    0.90234   -3.71510   512%     -   17s
     0     0   -3.70566    0    4    0.90234   -3.70566   511%     -   17s
     0     0   -3.59093    0    7    0.90234   -3.59093   498%     -   17s
     0     0   -3.59019    0    7    0.90234   -3.59019   498%     -   17s
     0     0   -2.87835    0    6    0.90234   -2.87835   419%     -   17s
     0     0   -2.79094    0    9    0.90234   -2.79094   409%     -   18s
H    0     0                       0.8925768   -2.79094   413%     -   18s
     0     0   -2.78052    0    8    0.89258   -2.78052   412%     -   18s
     0     0   -2.66839    0   10    0.89258   -2.66839   399%     -   18s
     0     0   -2.53063    0    9    0.89258   -2.53063   384%     -   18s
     0     0   -2.48287    0    9    0.89258   -2.48287   378%     -   18s
     0     0   -2.48260    0   10    0.89258   -2.48260   378%     -   18s
     0     0   -2.42840    0    7    0.89258   -2.42840   372%     -   18s
     0     0   -2.40289    0   10    0.89258   -2.40289   369%     -   18s
     0     0   -2.39857    0   11    0.89258   -2.39857   369%     -   18s
     0     0   -2.39376    0   11    0.89258   -2.39376   368%     -   18s
     0     0   -2.39292    0   11    0.89258   -2.39292   368%     -   18s
     0     0   -2.30306    0    7    0.89258   -2.30306   358%     -   18s
     0     0   -2.27600    0    7    0.89258   -2.27600   355%     -   18s
     0     0   -2.27588    0    8    0.89258   -2.27588   355%     -   18s
     0     0   -2.23281    0    9    0.89258   -2.23281   350%     -   18s
     0     0   -2.22695    0   10    0.89258   -2.22695   349%     -   18s
     0     0   -2.22371    0    9    0.89258   -2.22371   349%     -   18s
     0     0   -2.18853    0    9    0.89258   -2.18853   345%     -   18s
     0     0   -2.17119    0    8    0.89258   -2.17119   343%     -   18s
     0     0   -2.16802    0    8    0.89258   -2.16802   343%     -   18s
     0     0   -1.91844    0    6    0.89258   -1.91844   315%     -   18s
     0     0   -1.91058    0    6    0.89258   -1.91058   314%     -   18s
     0     0   -1.90053    0    7    0.89258   -1.90053   313%     -   18s
     0     0   -1.89797    0    8    0.89258   -1.89797   313%     -   18s
     0     0   -1.87662    0    9    0.89258   -1.87662   310%     -   18s
     0     2   -1.87662    0    9    0.89258   -1.87662   310%     -   18s

Cutting planes:
  MIR: 10
  StrongCG: 1
  Lazy constraints: 24

Explored 61 nodes (311 simplex iterations) in 19.44 seconds
Thread count was 8 (of 8 available processors)

Solution count 3: 0.892577 0.902336 0.914872 

Optimal solution found (tolerance 1.00e-04)
Best objective 8.925767658203e-01, best bound 8.925767658203e-01, gap 0.0000%

User-callback calls 365, time in user-callback 23.15 sec
